sat
(:eliminated-applications 1
 :eliminated-vars         1
 :max-memory              18.05
 :memory                  18.05
 :nlsat-conflicts         14
 :nlsat-decisions         2
 :nlsat-propagations      95
 :nlsat-stages            28
 :num-allocs              22565
 :rlimit-count            7127
 :time                    0.00
 :total-time              0.02)
